SAT
-1 -75 -74 -73 -72 -71 -70 69 -15 -45 -3 -53 36 -18 -21 -31 -40 -66 -11 -67 -61 -30 65 -54 -9 28 -38 -14 -27 50 43 12 -16 68 -6 -52 -25 -29 48 -55 44 56 35 -47 4 -39 -22 64 46 58 42 -2 37 26 5 -51 -49 17 63 -34 -10 -23 19 32 13 -8 -60 -33 24 62 -7 -59 41 -20 -57 0
